# Solution for model GasLib-40
# Objective value = 1.2941442817038238e+01
loadshed[innode_1] 0
loadshed[innode_2] 0
loadshed[innode_3] 0
loadshed[innode_4] 0
loadshed[innode_5] 0
loadshed[innode_6] 0
loadshed[innode_7] 0
loadshed[innode_8] 0
loadshed[source_1] -1.5368459829051617e-01
loadshed[source_2] 1.1110195668262102e-02
loadshed[source_3] 0.224435494897801
loadshed[sink_1] 0
loadshed[sink_2] 0
loadshed[sink_3] 0
loadshed[sink_4] 0
loadshed[sink_5] 0
loadshed[sink_6] 0
loadshed[sink_7] 0
loadshed[sink_8] 0
loadshed[sink_9] 0
loadshed[sink_10] 0
loadshed[sink_11] 0
loadshed[sink_12] 7.9132389199724251e-01
loadshed[sink_13] 0
loadshed[sink_14] 0
loadshed[sink_15] 0
loadshed[sink_16] 0
loadshed[sink_17] 0
loadshed[sink_18] 0
loadshed[sink_19] 0
loadshed[sink_20] 0
loadshed[sink_21] 0
loadshed[sink_22] 0
loadshed[sink_23] 0
loadshed[sink_24] 0
loadshed[sink_25] 0
loadshed[sink_26] 0
loadshed[sink_27] 0
loadshed[sink_28] 0
loadshed[sink_29] 0
flow[source_1,sink_3] 1.8238631861169165e+02
flow[innode_1,sink_16] 1.6354166666666970e+01
flow[innode_6,sink_13] -8.1300413795245987e+00
flow[sink_13,sink_14] -2.4484208046191267e+01
flow[sink_14,sink_10] -4.0838374712857934e+01
flow[sink_25,sink_26] 1.8262617027110682e+02
flow[sink_26,sink_9] 1.5060022384962923e+02
flow[sink_9,sink_18] 1.3424605718296257e+02
flow[sink_26,sink_4] 1.5671779754811439e+01
flow[sink_4,sink_20] 0
flow[sink_18,sink_6] 1.1789189051629592e+02
flow[sink_25,innode_8] -1.4967798527835527e+02
flow[sink_6,sink_7] 6.8829390516295462e+01
flow[sink_6,sink_22] 3.2708333333333641e+01
flow[sink_7,sink_24] 3.6121057182961771e+01
flow[sink_22,sink_1] 1.6354166666666970e+01
flow[sink_24,sink_21] 19.7668905162951
flow[sink_21,sink_12] 3.4127238496284305e+00
flow[sink_7,sink_5] 1.6354166666667368e+01
flow[sink_5,sink_17] 0
flow[sink_17,sink_4] 0.682386911855204
flow[sink_17,sink_8] -1.7036553578521872e+01
flow[sink_3,sink_23] 16.3541666666697
flow[sink_8,sink_20] -3.3390720245188540e+01
flow[sink_25,sink_20] 4.9744886911855190e+01
flow[sink_25,sink_15] -9.0917197191748869e+01
flow[sink_15,sink_29] -6.0142043238851358e+01
flow[sink_29,sink_28] 1.6354166666667879e+01
flow[sink_29,sink_2] 6.3483487286230854e+01
flow[sink_2,sink_15] 4.7129320619564190e+01
flow[sink_29,innode_7] -1.5633386385841675e+02
flow[innode_4,sink_19] 4.7670188816180364e+01
flow[sink_19,innode_3] 4.3871247388488648e+01
flow[innode_4,innode_5] 7.4939019230011013e+01
flow[sink_27,innode_5] -7.4939019230011013e+01
flow[sink_27,sink_19] 5.8584852563344342e+01
flow[sink_10,sink_11] 3.2708333333333641e+01
flow[sink_10,innode_2] -4.6029627324369592e+01
flow[sink_10,innode_3] -4.3871247388488648e+01
flow[innode_6,sink_25] 8.1300413795245987e+00
flow[sink_11,innode_1] 1.6354166666666970e+01
flow[sink_19,innode_2] 4.6029627324369592e+01
flow[source_3,innode_4] 1.2260920804619138e+02
flow[source_2,innode_7] 1.5633386385841675e+02
flow[sink_3,innode_8] 1.4967798527835527e+02
pressure[innode_1] 7.6497451966439570e+01
pressure[innode_2] 7.9082009186723141e+01
pressure[innode_3] 7.8984861277261189e+01
pressure[innode_4] 81.01325
pressure[innode_5] 8.0961702991026883e+01
pressure[innode_6] 7.4628919357804278e+01
pressure[innode_7] 81.01325
pressure[innode_8] 8.0403602210980239e+01
pressure[source_1] 81.01325
pressure[source_2] 81.01325
pressure[source_3] 81.01325
pressure[sink_1] 42.6462887817314
pressure[sink_2] 7.5223823200574259e+01
pressure[sink_3] 8.0403602210980239e+01
pressure[sink_4] 5.9774114797608959e+01
pressure[sink_5] 3.7000932897870939e+01
pressure[sink_6] 4.4747366392118771e+01
pressure[sink_7] 4.3802502924765655e+01
pressure[sink_8] 6.0443026801674236e+01
pressure[sink_9] 5.2752853350133826e+01
pressure[sink_10] 7.6649153274043115e+01
pressure[sink_11] 7.6497451966439570e+01
pressure[sink_12] 1.01325
pressure[sink_13] 7.4673738917273454e+01
pressure[sink_14] 7.4717555493165491e+01
pressure[sink_15] 7.5069956355886333e+01
pressure[sink_16] 7.5475802131621890e+01
pressure[sink_17] 5.9800193375278774e+01
pressure[sink_18] 4.7895430879190549e+01
pressure[sink_19] 7.9082009186723141e+01
pressure[sink_20] 6.2769890420014789e+01
pressure[sink_21] 2.2276839248016307e+00
pressure[sink_22] 4.3710057924086406e+01
pressure[sink_23] 8.0238884199320438e+01
pressure[sink_24] 2.4465838716379813e+00
pressure[sink_25] 7.4628919357804278e+01
pressure[sink_26] 6.1766665436012374e+01
pressure[sink_27] 80.3398476038362
pressure[sink_28] 76.5366493053782
pressure[sink_29] 76.8319315789954
interdiction[source_1,sink_3] 0
interdiction[innode_1,sink_16] 0
interdiction[innode_6,sink_13] 0
interdiction[sink_13,sink_14] 0
interdiction[sink_14,sink_10] 0
interdiction[sink_25,sink_26] 0
interdiction[sink_26,sink_9] 0
interdiction[sink_9,sink_18] 0
interdiction[sink_26,sink_4] 0
interdiction[sink_4,sink_20] 1
interdiction[sink_18,sink_6] 0
interdiction[sink_25,innode_8] 0
interdiction[sink_6,sink_7] 0
interdiction[sink_6,sink_22] 0
interdiction[sink_7,sink_24] 0
interdiction[sink_22,sink_1] 0
interdiction[sink_24,sink_21] 0
interdiction[sink_21,sink_12] 0
interdiction[sink_7,sink_5] 0
interdiction[sink_5,sink_17] 1
interdiction[sink_17,sink_4] 0
interdiction[sink_17,sink_8] 0
interdiction[sink_3,sink_23] 0
interdiction[sink_8,sink_20] 0
interdiction[sink_25,sink_20] 0
interdiction[sink_25,sink_15] 0
interdiction[sink_15,sink_29] 0
interdiction[sink_29,sink_28] 0
interdiction[sink_29,sink_2] 0
interdiction[sink_2,sink_15] 0
interdiction[sink_29,innode_7] 0
interdiction[innode_4,sink_19] 0
interdiction[sink_19,innode_3] 0
interdiction[innode_4,innode_5] 0
interdiction[sink_27,innode_5] 0
interdiction[sink_27,sink_19] 0
interdiction[sink_10,sink_11] 0
interdiction[sink_10,innode_2] 0
interdiction[sink_10,innode_3] 0
interdiction[innode_6,sink_25] 0
interdiction[sink_11,innode_1] 0
interdiction[sink_19,innode_2] 0
interdiction[source_3,innode_4] 0
interdiction[source_2,innode_7] 0
interdiction[sink_3,innode_8] 0
WCcheckFlow[source_1,sink_3] 39
WCcheckFlow[innode_1,sink_16] 1
WCcheckFlow[innode_6,sink_13] 13
WCcheckFlow[sink_13,sink_14] 12
WCcheckFlow[sink_14,sink_10] 11
WCcheckFlow[sink_25,sink_26] 15
WCcheckFlow[sink_26,sink_9] 10
WCcheckFlow[sink_9,sink_18] 9
WCcheckFlow[sink_26,sink_4] 4
WCcheckFlow[sink_4,sink_20] 0
WCcheckFlow[sink_18,sink_6] 8
WCcheckFlow[sink_25,innode_8] -36
WCcheckFlow[sink_6,sink_7] 5
WCcheckFlow[sink_6,sink_22] 2
WCcheckFlow[sink_7,sink_24] 3
WCcheckFlow[sink_22,sink_1] 1
WCcheckFlow[sink_24,sink_21] 2
WCcheckFlow[sink_21,sink_12] 1
WCcheckFlow[sink_7,sink_5] 1
WCcheckFlow[sink_5,sink_17] 0
WCcheckFlow[sink_17,sink_4] -3
WCcheckFlow[sink_17,sink_8] 2
WCcheckFlow[sink_3,sink_23] 1
WCcheckFlow[sink_8,sink_20] 1
WCcheckFlow[sink_25,sink_20] 0
WCcheckFlow[sink_25,sink_15] 6
WCcheckFlow[sink_15,sink_29] 5
WCcheckFlow[sink_29,sink_28] 1
WCcheckFlow[sink_29,sink_2] 1
WCcheckFlow[sink_2,sink_15] 0
WCcheckFlow[sink_29,innode_7] 2
WCcheckFlow[innode_4,sink_19] -4
WCcheckFlow[sink_19,innode_3] -5
WCcheckFlow[innode_4,innode_5] 2
WCcheckFlow[sink_27,innode_5] -1
WCcheckFlow[sink_27,sink_19] 0
WCcheckFlow[sink_10,sink_11] 3
WCcheckFlow[sink_10,innode_2] 1
WCcheckFlow[sink_10,innode_3] 6
WCcheckFlow[innode_6,sink_25] -14
WCcheckFlow[sink_11,innode_1] 2
WCcheckFlow[sink_19,innode_2] 0
WCcheckFlow[source_3,innode_4] -1
WCcheckFlow[source_2,innode_7] -1
WCcheckFlow[sink_3,innode_8] 37
